4 10 6 18 15 14 0 8 11 12 5 9 13 2 7 17 1 19 16 3  
4 10 6 18 15 14 0 8 11 7 12 5 9 13 2 17 1 19 16 3  
4 10 6 18 15 14 0 8 16 11 17 12 5 9 19 2 13 7 3 1  
4 10 6 18 15 14 0 8 12 17 11 16 5 9 19 7 3 13 2 1  
4 10 6 18 15 14 0 8 16 11 17 12 5 9 19 2 3 1 7 13  
4 10 6 18 15 14 0 8 11 16 17 12 5 9 19 2 3 1 7 13  
4 10 6 18 15 14 0 8 11 12 17 16 5 9 13 2 1 7 3 19  
4 10 6 18 15 14 0 8 11 12 5 9 13 17 1 7 2 3 19 16  
4 10 6 18 11 15 5 9 19 16 2 17 1 0 13 12 7 3 14 8  
4 10 6 18 15 14 0 11 12 9 2 19 5 8 17 1 7 13 16 3  
4 10 6 18 15 14 0 8 16 11 17 12 5 9 19 2 1 7 3 13  
4 10 6 18 15 14 0 8 11 16 17 12 5 9 19 2 13 7 3 1  
4 10 6 18 15 11 5 9 19 13 16 7 17 12 0 1 2 3 14 8  
4 10 6 18 15 14 0 8 11 12 17 16 5 9 19 3 2 1 7 13  
4 10 6 18 15 14 0 8 12 17 11 16 5 9 13 2 1 7 3 19  
4 10 6 18 15 14 0 8 11 12 17 16 5 9 19 3 2 1 7 13  
4 10 6 18 15 14 0 8 11 7 12 9 5 13 17 1 2 19 16 3  
4 10 6 18 11 15 5 9 19 16 2 17 1 0 13 12 7 3 14 8  
4 10 6 18 15 11 5 9 19 17 12 2 7 13 16 0 1 3 14 8  
4 10 6 18 15 14 0 8 12 17 11 16 5 9 13 2 1 7 3 19  
4 10 6 18 15 14 0 8 11 12 17 16 5 9 19 2 13 7 3 1  
4 10 6 18 15 14 0 8 11 12 17 1 5 9 19 7 2 13 16 3  
4 10 6 18 15 11 5 9 19 7 17 13 16 12 0 1 2 3 14 8  
4 10 6 18 15 14 0 8 11 12 17 1 5 9 19 2 13 16 3 7  
4 10 6 18 15 14 0 8 11 16 17 12 5 9 19 2 13 7 3 1  
4 10 6 18 15 14 0 8 12 17 11 16 5 9 13 2 1 7 3 19  
4 10 6 18 11 15 5 9 19 16 2 17 1 0 13 12 7 3 14 8  
4 10 6 18 15 14 0 8 11 12 17 16 5 9 19 7 3 1 2 13  
4 10 6 18 11 15 5 9 19 16 2 17 1 0 13 12 7 3 14 8  
4 10 18 15 6 14 17 8 16 11 0 1 5 9 19 2 13 12 7 3  
4 10 6 18 15 14 0 8 11 12 17 16 5 9 13 2 7 3 1 19  
4 10 6 18 15 14 0 8 11 12 17 1 5 9 19 2 13 16 3 7  
4 10 6 18 15 14 0 8 11 12 17 16 5 9 13 2 7 3 1 19  
4 10 6 18 15 14 0 8 11 12 17 16 5 9 19 7 3 13 2 1  
4 10 6 15 18 14 17 8 16 11 0 1 5 9 19 2 13 12 7 3  
